Set parameter LicenseID to value 2609176
Set parameter TimeLimit to value 1800
Gurobi Optimizer version 11.0.3 build v11.0.3rc0 (linux64 - "Debian GNU/Linux 12 (bookworm)")

CPU model: AMD EPYC 7B12, instruction set [SSE2|AVX|AVX2]
Thread count: 4 physical cores, 8 logical processors, using up to 8 threads

Optimize a model with 391596 rows, 298116 columns and 200394777 nonzeros
Model fingerprint: 0x4e7a7f81
Variable types: 0 continuous, 298116 integer (298116 binary)
Coefficient statistics:
  Matrix range     [1e+00, 1e+00]
  Objective range  [0e+00, 0e+00]
  Bounds range     [1e+00, 1e+00]
  RHS range        [1e+00, 1e+00]
Presolve removed 0 rows and 0 columns (presolve time = 6s) ...
Presolve removed 273 rows and 273 columns (presolve time = 12s) ...
Presolve removed 273 rows and 273 columns (presolve time = 16s) ...
Presolve removed 273 rows and 273 columns (presolve time = 25s) ...
Presolve removed 273 rows and 273 columns (presolve time = 28s) ...
Presolve removed 273 rows and 273 columns (presolve time = 30s) ...
Presolve removed 273 rows and 273 columns (presolve time = 35s) ...
Presolve removed 273 rows and 273 columns (presolve time = 40s) ...
Presolve removed 273 rows and 273 columns (presolve time = 45s) ...
Presolve removed 273 rows and 273 columns (presolve time = 50s) ...
Presolve removed 273 rows and 273 columns (presolve time = 55s) ...
Presolve removed 273 rows and 273 columns (presolve time = 60s) ...
Presolve removed 273 rows and 273 columns (presolve time = 65s) ...
Presolve removed 273 rows and 273 columns (presolve time = 74s) ...
Presolve removed 273 rows and 273 columns (presolve time = 75s) ...
Presolve removed 273 rows and 273 columns (presolve time = 80s) ...
Presolve removed 273 rows and 273 columns (presolve time = 85s) ...
Presolve removed 273 rows and 273 columns (presolve time = 90s) ...
Presolve removed 273 rows and 273 columns (presolve time = 95s) ...
Presolve removed 273 rows and 273 columns (presolve time = 100s) ...
Presolve removed 273 rows and 273 columns (presolve time = 105s) ...
Presolve removed 273 rows and 273 columns (presolve time = 110s) ...
Presolve removed 273 rows and 273 columns (presolve time = 115s) ...
Presolve removed 273 rows and 273 columns (presolve time = 120s) ...
Presolve removed 381 rows and 273 columns (presolve time = 126s) ...
Presolve removed 381 rows and 273 columns (presolve time = 132s) ...
Presolve removed 381 rows and 273 columns (presolve time = 137s) ...
Presolve removed 381 rows and 273 columns (presolve time = 145s) ...
Presolve removed 381 rows and 273 columns (presolve time = 150s) ...
Presolve removed 381 rows and 273 columns (presolve time = 155s) ...
Presolve removed 381 rows and 273 columns (presolve time = 160s) ...
Presolve removed 381 rows and 273 columns (presolve time = 165s) ...
Presolve removed 381 rows and 273 columns (presolve time = 170s) ...
Presolve removed 381 rows and 273 columns (presolve time = 175s) ...
Presolve removed 381 rows and 273 columns (presolve time = 180s) ...
Presolve removed 381 rows and 273 columns (presolve time = 185s) ...
Presolve removed 381 rows and 273 columns (presolve time = 190s) ...
Presolve removed 381 rows and 273 columns (presolve time = 195s) ...
Presolve removed 381 rows and 273 columns (presolve time = 202s) ...
Presolve removed 381 rows and 273 columns (presolve time = 206s) ...
Presolve removed 381 rows and 273 columns (presolve time = 210s) ...
Presolve removed 381 rows and 273 columns (presolve time = 220s) ...
Presolve removed 381 rows and 273 columns (presolve time = 225s) ...
Presolve removed 381 rows and 273 columns (presolve time = 231s) ...
Presolve removed 381 rows and 273 columns (presolve time = 235s) ...
Presolve removed 381 rows and 273 columns (presolve time = 248s) ...
Presolve removed 381 rows and 273 columns (presolve time = 254s) ...
Presolve removed 381 rows and 273 columns (presolve time = 259s) ...
Presolve removed 381 rows and 273 columns (presolve time = 260s) ...
Presolve removed 381 rows and 273 columns (presolve time = 265s) ...
Presolve removed 381 rows and 273 columns (presolve time = 270s) ...
Presolve removed 381 rows and 273 columns (presolve time = 275s) ...
Presolve removed 381 rows and 273 columns (presolve time = 281s) ...
Presolve removed 381 rows and 273 columns (presolve time = 287s) ...
Error: invalid user locale; possible fix is to set the system environment
       variable 'LC_ALL' to a valid locale (e.g., to 'C')
Presolve removed 381 rows and 273 columns (presolve time = 301s) ...
Presolve removed 381 rows and 273 columns (presolve time = 305s) ...
Presolve removed 381 rows and 273 columns (presolve time = 310s) ...
Presolve removed 381 rows and 273 columns (presolve time = 315s) ...
Presolve removed 381 rows and 273 columns (presolve time = 320s) ...
Presolve removed 381 rows and 273 columns (presolve time = 325s) ...
Presolve removed 381 rows and 273 columns (presolve time = 330s) ...
Presolve removed 381 rows and 273 columns (presolve time = 335s) ...
Presolve removed 381 rows and 273 columns (presolve time = 340s) ...
Presolve removed 381 rows and 273 columns (presolve time = 345s) ...
Presolve removed 381 rows and 273 columns (presolve time = 350s) ...
Presolve removed 381 rows and 273 columns (presolve time = 355s) ...
Presolve removed 381 rows and 273 columns (presolve time = 360s) ...
Presolve removed 381 rows and 273 columns (presolve time = 365s) ...
Presolve removed 381 rows and 273 columns (presolve time = 370s) ...
Presolve removed 381 rows and 273 columns (presolve time = 375s) ...
Presolve removed 381 rows and 273 columns (presolve time = 380s) ...
Presolve removed 381 rows and 273 columns (presolve time = 385s) ...
Presolve removed 381 rows and 273 columns (presolve time = 390s) ...
Presolve removed 381 rows and 273 columns (presolve time = 395s) ...
Presolve removed 381 rows and 273 columns (presolve time = 400s) ...
Presolve removed 381 rows and 273 columns (presolve time = 405s) ...
Presolve removed 381 rows and 273 columns (presolve time = 410s) ...
Presolve removed 381 rows and 273 columns (presolve time = 415s) ...
Presolve removed 381 rows and 273 columns (presolve time = 420s) ...
Presolve removed 381 rows and 273 columns (presolve time = 425s) ...
Presolve removed 381 rows and 273 columns (presolve time = 430s) ...
Presolve removed 381 rows and 273 columns (presolve time = 435s) ...
Presolve removed 381 rows and 273 columns (presolve time = 440s) ...
Presolve removed 381 rows and 273 columns (presolve time = 445s) ...
Presolve removed 381 rows and 273 columns (presolve time = 450s) ...
Presolve removed 381 rows and 273 columns (presolve time = 455s) ...
Presolve removed 381 rows and 273 columns (presolve time = 460s) ...
Presolve removed 381 rows and 273 columns (presolve time = 465s) ...
Presolve removed 381 rows and 273 columns (presolve time = 470s) ...
Sparsify removed 83034 nonzeros (0%)
Presolve removed 381 rows and 273 columns (presolve time = 482s) ...
Presolve removed 381 rows and 273 columns
Presolve time: 481.81s
Presolved: 391215 rows, 297843 columns, 200059788 nonzeros
Variable types: 0 continuous, 297843 integer (297843 binary)
